HUN,8,6,580
2,8,1,12,0,8,3,26,5,19,4,25
1,27,0,19,2,7,5,21,3,24,4,7
2,25,0,24,1,22,4,20,3,14,5,3
1,28,2,27,0,5,3,1,5,3,4,10
2,16,1,24,0,30,4,3,3,21,5,5
0,3,1,15,2,27,4,29,5,16,3,24
1,30,0,26,2,3,3,27,5,18,4,16
2,25,1,10,0,13,3,30,5,17,4,5
